data;
param nombreJob := 6;
param nombreRessource := 3;
param duree := 1 6 2 1 3 6 4 4 5 2 6 8;
param capaciteRessource := 1 5 2 13 3 11;
param besoinRessource : 1 2 3 :=
                    1   3 8 2
                    2   1 2 10
                    3   4 6 9
                    4   1 5 7
                    5   2 6 7
                    6   3 8 5;
end;

